p cnf 330 880
c weights 1.0 1.0 2.718281828459045 0.36787944117144233 2.718281828459045 0.36787944117144233 2.718281828459045 0.36787944117144233 2.718281828459045 0.36787944117144233 2.718281828459045 0.36787944117144233 1.0 1.0 2.718281828459045 0.36787944117144233 2.718281828459045 0.36787944117144233 2.718281828459045 0.36787944117144233 2.718281828459045 0.36787944117144233 1.0 1.0 2.718281828459045 0.36787944117144233 2.718281828459045 0.36787944117144233 2.718281828459045 0.36787944117144233 1.0 1.0 2.718281828459045 0.36787944117144233 2.718281828459045 0.36787944117144233 2.718281828459045 0.36787944117144233 2.718281828459045 0.36787944117144233 2.718281828459045 0.36787944117144233 2.718281828459045 0.36787944117144233 2.718281828459045 0.36787944117144233 1.0 1.0 2.718281828459045 0.36787944117144233 2.718281828459045 0.36787944117144233 2.718281828459045 0.36787944117144233 2.718281828459045 0.36787944117144233 2.718281828459045 0.36787944117144233 2.718281828459045 0.36787944117144233 1.0 1.0 2.718281828459045 0.36787944117144233 2.718281828459045 0.36787944117144233 2.718281828459045 0.36787944117144233 2.718281828459045 0.36787944117144233 1.0 1.0 2.718281828459045 0.36787944117144233 2.718281828459045 0.36787944117144233 1.0 1.0 2.718281828459045 0.36787944117144233 2.718281828459045 0.36787944117144233 2.718281828459045 0.36787944117144233 1.0 1.0 2.718281828459045 0.36787944117144233 2.718281828459045 0.36787944117144233 2.718281828459045 0.36787944117144233 2.718281828459045 0.36787944117144233 2.718281828459045 0.36787944117144233 2.718281828459045 0.36787944117144233 2.718281828459045 0.36787944117144233 1.0 1.0 2.718281828459045 0.36787944117144233 2.718281828459045 0.36787944117144233 1.0 1.0 2.718281828459045 0.36787944117144233 2.718281828459045 0.36787944117144233 2.718281828459045 0.36787944117144233 2.718281828459045 0.36787944117144233 1.0 1.0 2.718281828459045 0.36787944117144233 2.718281828459045 0.36787944117144233 2.718281828459045 0.36787944117144233 1.0 1.0 2.718281828459045 0.36787944117144233 2.718281828459045 0.36787944117144233 2.718281828459045 0.36787944117144233 2.718281828459045 0.36787944117144233 2.718281828459045 0.36787944117144233 2.718281828459045 0.36787944117144233 1.0 1.0 2.718281828459045 0.36787944117144233 2.718281828459045 0.36787944117144233 2.718281828459045 0.36787944117144233 1.0 1.0 2.718281828459045 0.36787944117144233 2.718281828459045 0.36787944117144233 1.0 1.0 1.0 1.0 2.718281828459045 0.36787944117144233 2.718281828459045 0.36787944117144233 2.718281828459045 0.36787944117144233 2.718281828459045 0.36787944117144233 2.718281828459045 0.36787944117144233 2.718281828459045 0.36787944117144233 1.0 1.0 2.718281828459045 0.36787944117144233 2.718281828459045 0.36787944117144233 2.718281828459045 0.36787944117144233 2.718281828459045 0.36787944117144233 1.0 1.0 2.718281828459045 0.36787944117144233 2.718281828459045 0.36787944117144233 1.0 1.0 2.718281828459045 0.36787944117144233 2.718281828459045 0.36787944117144233 2.718281828459045 0.36787944117144233 2.718281828459045 0.36787944117144233 2.718281828459045 0.36787944117144233 1.0 1.0 2.718281828459045 0.36787944117144233 2.718281828459045 0.36787944117144233 2.718281828459045 0.36787944117144233 1.0 1.0 2.718281828459045 0.36787944117144233 2.718281828459045 0.36787944117144233 1.0 1.0 2.718281828459045 0.36787944117144233 2.718281828459045 0.36787944117144233 1.0 1.0 2.718281828459045 0.36787944117144233 2.718281828459045 0.36787944117144233 1.0 1.0 2.718281828459045 0.36787944117144233 2.718281828459045 0.36787944117144233 2.718281828459045 0.36787944117144233 2.718281828459045 0.36787944117144233 2.718281828459045 0.36787944117144233 1.0 1.0 2.718281828459045 0.36787944117144233 2.718281828459045 0.36787944117144233 2.718281828459045 0.36787944117144233 2.718281828459045 0.36787944117144233 2.718281828459045 0.36787944117144233 1.0 1.0 2.718281828459045 0.36787944117144233 2.718281828459045 0.36787944117144233 2.718281828459045 0.36787944117144233 2.718281828459045 0.36787944117144233 2.718281828459045 0.36787944117144233 2.718281828459045 0.36787944117144233 2.718281828459045 0.36787944117144233 2.718281828459045 0.36787944117144233 1.0 1.0 1.0 1.0 2.718281828459045 0.36787944117144233 1.0 1.0 2.718281828459045 0.36787944117144233 1.0 1.0 2.718281828459045 0.36787944117144233 2.718281828459045 0.36787944117144233 1.0 1.0 2.718281828459045 0.36787944117144233 2.718281828459045 0.36787944117144233 2.718281828459045 0.36787944117144233 2.718281828459045 0.36787944117144233 1.0 1.0 2.718281828459045 0.36787944117144233 2.718281828459045 0.36787944117144233 2.718281828459045 0.36787944117144233 2.718281828459045 0.36787944117144233 2.718281828459045 0.36787944117144233 1.0 1.0 2.718281828459045 0.36787944117144233 2.718281828459045 0.36787944117144233 2.718281828459045 0.36787944117144233 2.718281828459045 0.36787944117144233 1.0 1.0 2.718281828459045 0.36787944117144233 2.718281828459045 0.36787944117144233 2.718281828459045 0.36787944117144233 1.0 1.0 2.718281828459045 0.36787944117144233 1.0 1.0 2.718281828459045 0.36787944117144233 1.0 1.0 2.718281828459045 0.36787944117144233 2.718281828459045 0.36787944117144233 2.718281828459045 0.36787944117144233 2.718281828459045 0.36787944117144233 1.0 1.0 2.718281828459045 0.36787944117144233 2.718281828459045 0.36787944117144233 2.718281828459045 0.36787944117144233 2.718281828459045 0.36787944117144233 1.0 1.0 2.718281828459045 0.36787944117144233 2.718281828459045 0.36787944117144233 2.718281828459045 0.36787944117144233 2.718281828459045 0.36787944117144233 1.0 1.0 2.718281828459045 0.36787944117144233 2.718281828459045 0.36787944117144233 1.0 1.0 2.718281828459045 0.36787944117144233 1.0 1.0 2.718281828459045 0.36787944117144233 2.718281828459045 0.36787944117144233 2.718281828459045 0.36787944117144233 2.718281828459045 0.36787944117144233 2.718281828459045 0.36787944117144233 2.718281828459045 0.36787944117144233 1.0 1.0 2.718281828459045 0.36787944117144233 2.718281828459045 0.36787944117144233 2.718281828459045 0.36787944117144233 2.718281828459045 0.36787944117144233 2.718281828459045 0.36787944117144233 1.0 1.0 2.718281828459045 0.36787944117144233 1.0 1.0 2.718281828459045 0.36787944117144233 2.718281828459045 0.36787944117144233 1.0 1.0 1.0 1.0 2.718281828459045 0.36787944117144233 2.718281828459045 0.36787944117144233 2.718281828459045 0.36787944117144233 1.0 1.0 2.718281828459045 0.36787944117144233 2.718281828459045 0.36787944117144233 1.0 1.0 2.718281828459045 0.36787944117144233 2.718281828459045 0.36787944117144233 2.718281828459045 0.36787944117144233 2.718281828459045 0.36787944117144233 1.0 1.0 1.0 1.0 2.718281828459045 0.36787944117144233 1.0 1.0 2.718281828459045 0.36787944117144233 2.718281828459045 0.36787944117144233 2.718281828459045 0.36787944117144233 2.718281828459045 0.36787944117144233 2.718281828459045 0.36787944117144233 1.0 1.0 2.718281828459045 0.36787944117144233 2.718281828459045 0.36787944117144233 2.718281828459045 0.36787944117144233 1.0 1.0 2.718281828459045 0.36787944117144233 1.0 1.0 2.718281828459045 0.36787944117144233 2.718281828459045 0.36787944117144233 1.0 1.0 2.718281828459045 0.36787944117144233 2.718281828459045 0.36787944117144233 1.0 1.0 2.718281828459045 0.36787944117144233 1.0 1.0 1.0 1.0 2.718281828459045 0.36787944117144233 2.718281828459045 0.36787944117144233 1.0 1.0 1.0 1.0 1.0 1.0 2.718281828459045 0.36787944117144233 1.0 1.0 2.718281828459045 0.36787944117144233 1.0 1.0 2.718281828459045 0.36787944117144233 1.0 1.0 2.718281828459045 0.36787944117144233 2.718281828459045 0.36787944117144233 2.718281828459045 0.36787944117144233 1.0 1.0 2.718281828459045 0.36787944117144233 2.718281828459045 0.36787944117144233 1.0 1.0 1.0 1.0 2.718281828459045 0.36787944117144233 1.0 1.0 2.718281828459045 0.36787944117144233 1.0 1.0 2.718281828459045 0.36787944117144233 1.0 1.0 2.718281828459045 0.36787944117144233 1.0 1.0 2.718281828459045 0.36787944117144233 2.718281828459045 0.36787944117144233 2.718281828459045 0.36787944117144233 1.0 1.0 2.718281828459045 0.36787944117144233 1.0 1.0 2.718281828459045 0.36787944117144233 1.0 1.0 2.718281828459045 0.36787944117144233 2.718281828459045 0.36787944117144233 1.0 1.0 2.718281828459045 0.36787944117144233 2.718281828459045 0.36787944117144233 1.0 1.0 2.718281828459045 0.36787944117144233 2.718281828459045 0.36787944117144233 1.0 1.0 1.0 1.0 2.718281828459045 0.36787944117144233 2.718281828459045 0.36787944117144233 1.0 1.0 2.718281828459045 0.36787944117144233 1.0 1.0 1.0 1.0 1.0 1.0 1.0 1.0 2.718281828459045 0.36787944117144233 1.0 1.0 2.718281828459045 0.36787944117144233 1.0 1.0 2.718281828459045 0.36787944117144233 2.718281828459045 0.36787944117144233 1.0 1.0 2.718281828459045 0.36787944117144233 1.0 1.0 2.718281828459045 0.36787944117144233 1.0 1.0 1.0 1.0 1.0 1.0 1.0 1.0 1.0 1.0 1.0 1.0 2.718281828459045 0.36787944117144233 1.0 1.0 2.718281828459045 0.36787944117144233 2.718281828459045 0.36787944117144233 1.0 1.0 1.0 1.0 2.718281828459045 0.36787944117144233 1.0 1.0 2.718281828459045 0.36787944117144233 1.0 1.0 2.718281828459045 0.36787944117144233 1.0 1.0 1.0 1.0 1.0 1.0 1.0 1.0 1.0 1.0 1.0 1.0 1.0 1.0 1.0 1.0 1.0 1.0 1.0 1.0
2 1 93 0
2 -1 -93 0
-2 1 -93 0
-2 -1 93 0
3 1 99 0
3 -1 -99 0
-3 1 -99 0
-3 -1 99 0
4 1 146 0
4 -1 -146 0
-4 1 -146 0
-4 -1 146 0
5 1 247 0
5 -1 -247 0
-5 1 -247 0
-5 -1 247 0
6 1 295 0
6 -1 -295 0
-6 1 -295 0
-6 -1 295 0
8 7 192 0
8 -7 -192 0
-8 7 -192 0
-8 -7 192 0
9 7 200 0
9 -7 -200 0
-9 7 -200 0
-9 -7 200 0
10 7 219 0
10 -7 -219 0
-10 7 -219 0
-10 -7 219 0
11 7 239 0
11 -7 -239 0
-11 7 -239 0
-11 -7 239 0
13 12 54 0
13 -12 -54 0
-13 12 -54 0
-13 -12 54 0
14 12 134 0
14 -12 -134 0
-14 12 -134 0
-14 -12 134 0
15 12 203 0
15 -12 -203 0
-15 12 -203 0
-15 -12 203 0
17 16 43 0
17 -16 -43 0
-17 16 -43 0
-17 -16 43 0
18 16 198 0
18 -16 -198 0
-18 16 -198 0
-18 -16 198 0
19 16 278 0
19 -16 -278 0
-19 16 -278 0
-19 -16 278 0
20 16 291 0
20 -16 -291 0
-20 16 -291 0
-20 -16 291 0
21 16 293 0
21 -16 -293 0
-21 16 -293 0
-21 -16 293 0
22 16 308 0
22 -16 -308 0
-22 16 -308 0
-22 -16 308 0
23 16 326 0
23 -16 -326 0
-23 16 -326 0
-23 -16 326 0
25 24 99 0
25 -24 -99 0
-25 24 -99 0
-25 -24 99 0
26 24 240 0
26 -24 -240 0
-26 24 -240 0
-26 -24 240 0
27 24 249 0
27 -24 -249 0
-27 24 -249 0
-27 -24 249 0
28 24 302 0
28 -24 -302 0
-28 24 -302 0
-28 -24 302 0
29 24 314 0
29 -24 -314 0
-29 24 -314 0
-29 -24 314 0
30 24 328 0
30 -24 -328 0
-30 24 -328 0
-30 -24 328 0
32 31 208 0
32 -31 -208 0
-32 31 -208 0
-32 -31 208 0
33 31 239 0
33 -31 -239 0
-33 31 -239 0
-33 -31 239 0
34 31 292 0
34 -31 -292 0
-34 31 -292 0
-34 -31 292 0
35 31 315 0
35 -31 -315 0
-35 31 -315 0
-35 -31 315 0
37 36 244 0
37 -36 -244 0
-37 36 -244 0
-37 -36 244 0
38 36 322 0
38 -36 -322 0
-38 36 -322 0
-38 -36 322 0
40 39 136 0
40 -39 -136 0
-40 39 -136 0
-40 -39 136 0
41 39 300 0
41 -39 -300 0
-41 39 -300 0
-41 -39 300 0
42 39 329 0
42 -39 -329 0
-42 39 -329 0
-42 -39 329 0
44 43 109 0
44 -43 -109 0
-44 43 -109 0
-44 -43 109 0
45 43 124 0
45 -43 -124 0
-45 43 -124 0
-45 -43 124 0
46 43 163 0
46 -43 -163 0
-46 43 -163 0
-46 -43 163 0
47 43 203 0
47 -43 -203 0
-47 43 -203 0
-47 -43 203 0
48 43 229 0
48 -43 -229 0
-48 43 -229 0
-48 -43 229 0
49 43 265 0
49 -43 -265 0
-49 43 -265 0
-49 -43 265 0
50 43 327 0
50 -43 -327 0
-50 43 -327 0
-50 -43 327 0
52 51 141 0
52 -51 -141 0
-52 51 -141 0
-52 -51 141 0
53 51 284 0
53 -51 -284 0
-53 51 -284 0
-53 -51 284 0
55 54 175 0
55 -54 -175 0
-55 54 -175 0
-55 -54 175 0
56 54 247 0
56 -54 -247 0
-56 54 -247 0
-56 -54 247 0
57 54 290 0
57 -54 -290 0
-57 54 -290 0
-57 -54 290 0
58 54 292 0
58 -54 -292 0
-58 54 -292 0
-58 -54 292 0
60 59 183 0
60 -59 -183 0
-60 59 -183 0
-60 -59 183 0
61 59 229 0
61 -59 -229 0
-61 59 -229 0
-61 -59 229 0
62 59 304 0
62 -59 -304 0
-62 59 -304 0
-62 -59 304 0
64 63 109 0
64 -63 -109 0
-64 63 -109 0
-64 -63 109 0
65 63 204 0
65 -63 -204 0
-65 63 -204 0
-65 -63 204 0
66 63 229 0
66 -63 -229 0
-66 63 -229 0
-66 -63 229 0
67 63 244 0
67 -63 -244 0
-67 63 -244 0
-67 -63 244 0
68 63 263 0
68 -63 -263 0
-68 63 -263 0
-68 -63 263 0
69 63 305 0
69 -63 -305 0
-69 63 -305 0
-69 -63 305 0
71 70 133 0
71 -70 -133 0
-71 70 -133 0
-71 -70 133 0
72 70 163 0
72 -70 -163 0
-72 70 -163 0
-72 -70 163 0
73 70 308 0
73 -70 -308 0
-73 70 -308 0
-73 -70 308 0
75 74 146 0
75 -74 -146 0
-75 74 -146 0
-75 -74 146 0
76 74 265 0
76 -74 -265 0
-76 74 -265 0
-76 -74 265 0
79 78 85 0
79 -78 -85 0
-79 78 -85 0
-79 -78 85 0
80 78 204 0
80 -78 -204 0
-80 78 -204 0
-80 -78 204 0
81 78 243 0
81 -78 -243 0
-81 78 -243 0
-81 -78 243 0
82 78 249 0
82 -78 -249 0
-82 78 -249 0
-82 -78 249 0
83 78 275 0
83 -78 -275 0
-83 78 -275 0
-83 -78 275 0
84 78 321 0
84 -78 -321 0
-84 78 -321 0
-84 -78 321 0
86 85 175 0
86 -85 -175 0
-86 85 -175 0
-86 -85 175 0
87 85 185 0
87 -85 -185 0
-87 85 -185 0
-87 -85 185 0
88 85 204 0
88 -85 -204 0
-88 85 -204 0
-88 -85 204 0
89 85 263 0
89 -85 -263 0
-89 85 -263 0
-89 -85 263 0
91 90 163 0
91 -90 -163 0
-91 90 -163 0
-91 -90 163 0
92 90 288 0
92 -90 -288 0
-92 90 -288 0
-92 -90 288 0
94 93 141 0
94 -93 -141 0
-94 93 -141 0
-94 -93 141 0
95 93 204 0
95 -93 -204 0
-95 93 -204 0
-95 -93 204 0
96 93 251 0
96 -93 -251 0
-96 93 -251 0
-96 -93 251 0
97 93 300 0
97 -93 -300 0
-97 93 -300 0
-97 -93 300 0
98 93 323 0
98 -93 -323 0
-98 93 -323 0
-98 -93 323 0
100 99 292 0
100 -99 -292 0
-100 99 -292 0
-100 -99 292 0
101 99 326 0
101 -99 -326 0
-101 99 -326 0
-101 -99 326 0
102 99 330 0
102 -99 -330 0
-102 99 -330 0
-102 -99 330 0
104 103 165 0
104 -103 -165 0
-104 103 -165 0
-104 -103 165 0
105 103 326 0
105 -103 -326 0
-105 103 -326 0
-105 -103 326 0
107 106 231 0
107 -106 -231 0
-107 106 -231 0
-107 -106 231 0
108 106 297 0
108 -106 -297 0
-108 106 -297 0
-108 -106 297 0
110 109 200 0
110 -109 -200 0
-110 109 -200 0
-110 -109 200 0
111 109 265 0
111 -109 -265 0
-111 109 -265 0
-111 -109 265 0
113 112 152 0
113 -112 -152 0
-113 112 -152 0
-113 -112 152 0
114 112 175 0
114 -112 -175 0
-114 112 -175 0
-114 -112 175 0
115 112 208 0
115 -112 -208 0
-115 112 -208 0
-115 -112 208 0
116 112 295 0
116 -112 -295 0
-116 112 -295 0
-116 -112 295 0
117 112 317 0
117 -112 -317 0
-117 112 -317 0
-117 -112 317 0
119 118 273 0
119 -118 -273 0
-119 118 -273 0
-119 -118 273 0
120 118 278 0
120 -118 -278 0
-120 118 -278 0
-120 -118 278 0
121 118 309 0
121 -118 -309 0
-121 118 -309 0
-121 -118 309 0
122 118 325 0
122 -118 -325 0
-122 118 -325 0
-122 -118 325 0
123 118 330 0
123 -118 -330 0
-123 118 -330 0
-123 -118 330 0
125 124 163 0
125 -124 -163 0
-125 124 -163 0
-125 -124 163 0
126 124 180 0
126 -124 -180 0
-126 124 -180 0
-126 -124 180 0
127 124 229 0
127 -124 -229 0
-127 124 -229 0
-127 -124 229 0
128 124 259 0
128 -124 -259 0
-128 124 -259 0
-128 -124 259 0
129 124 314 0
129 -124 -314 0
-129 124 -314 0
-129 -124 314 0
130 124 325 0
130 -124 -325 0
-130 124 -325 0
-130 -124 325 0
131 124 327 0
131 -124 -327 0
-131 124 -327 0
-131 -124 327 0
132 124 328 0
132 -124 -328 0
-132 124 -328 0
-132 -124 328 0
135 134 234 0
135 -134 -234 0
-135 134 -234 0
-135 -134 234 0
137 136 183 0
137 -136 -183 0
-137 136 -183 0
-137 -136 183 0
139 138 324 0
139 -138 -324 0
-139 138 -324 0
-139 -138 324 0
140 138 329 0
140 -138 -329 0
-140 138 -329 0
-140 -138 329 0
142 141 216 0
142 -141 -216 0
-142 141 -216 0
-142 -141 216 0
143 141 263 0
143 -141 -263 0
-143 141 -263 0
-143 -141 263 0
144 141 267 0
144 -141 -267 0
-144 141 -267 0
-144 -141 267 0
145 141 304 0
145 -141 -304 0
-145 141 -304 0
-145 -141 304 0
147 146 161 0
147 -146 -161 0
-147 146 -161 0
-147 -146 161 0
148 146 239 0
148 -146 -239 0
-148 146 -239 0
-148 -146 239 0
149 146 247 0
149 -146 -247 0
-149 146 -247 0
-149 -146 247 0
150 146 261 0
150 -146 -261 0
-150 146 -261 0
-150 -146 261 0
151 146 300 0
151 -146 -300 0
-151 146 -300 0
-151 -146 300 0
153 152 244 0
153 -152 -244 0
-153 152 -244 0
-153 -152 244 0
154 152 247 0
154 -152 -247 0
-154 152 -247 0
-154 -152 247 0
155 152 258 0
155 -152 -258 0
-155 152 -258 0
-155 -152 258 0
156 152 288 0
156 -152 -288 0
-156 152 -288 0
-156 -152 288 0
158 157 219 0
158 -157 -219 0
-158 157 -219 0
-158 -157 219 0
159 157 247 0
159 -157 -247 0
-159 157 -247 0
-159 -157 247 0
160 157 326 0
160 -157 -326 0
-160 157 -326 0
-160 -157 326 0
162 161 249 0
162 -161 -249 0
-162 161 -249 0
-162 -161 249 0
164 163 192 0
164 -163 -192 0
-164 163 -192 0
-164 -163 192 0
166 165 198 0
166 -165 -198 0
-166 165 -198 0
-166 -165 198 0
167 165 231 0
167 -165 -231 0
-167 165 -231 0
-167 -165 231 0
168 165 271 0
168 -165 -271 0
-168 165 -271 0
-168 -165 271 0
169 165 327 0
169 -165 -327 0
-169 165 -327 0
-169 -165 327 0
171 170 219 0
171 -170 -219 0
-171 170 -219 0
-171 -170 219 0
172 170 263 0
172 -170 -263 0
-172 170 -263 0
-172 -170 263 0
173 170 278 0
173 -170 -278 0
-173 170 -278 0
-173 -170 278 0
174 170 308 0
174 -170 -308 0
-174 170 -308 0
-174 -170 308 0
176 175 219 0
176 -175 -219 0
-176 175 -219 0
-176 -175 219 0
177 175 243 0
177 -175 -243 0
-177 175 -243 0
-177 -175 243 0
178 175 259 0
178 -175 -259 0
-178 175 -259 0
-178 -175 259 0
179 175 304 0
179 -175 -304 0
-179 175 -304 0
-179 -175 304 0
181 180 216 0
181 -180 -216 0
-181 180 -216 0
-181 -180 216 0
182 180 323 0
182 -180 -323 0
-182 180 -323 0
-182 -180 323 0
184 183 323 0
184 -183 -323 0
-184 183 -323 0
-184 -183 323 0
186 185 203 0
186 -185 -203 0
-186 185 -203 0
-186 -185 203 0
187 185 208 0
187 -185 -208 0
-187 185 -208 0
-187 -185 208 0
188 185 216 0
188 -185 -216 0
-188 185 -216 0
-188 -185 216 0
189 185 229 0
189 -185 -229 0
-189 185 -229 0
-189 -185 229 0
190 185 281 0
190 -185 -281 0
-190 185 -281 0
-190 -185 281 0
191 185 327 0
191 -185 -327 0
-191 185 -327 0
-191 -185 327 0
193 192 198 0
193 -192 -198 0
-193 192 -198 0
-193 -192 198 0
194 192 255 0
194 -192 -255 0
-194 192 -255 0
-194 -192 255 0
195 192 293 0
195 -192 -293 0
-195 192 -293 0
-195 -192 293 0
196 192 306 0
196 -192 -306 0
-196 192 -306 0
-196 -192 306 0
197 192 328 0
197 -192 -328 0
-197 192 -328 0
-197 -192 328 0
199 198 291 0
199 -198 -291 0
-199 198 -291 0
-199 -198 291 0
201 200 239 0
201 -200 -239 0
-201 200 -239 0
-201 -200 239 0
202 200 275 0
202 -200 -275 0
-202 200 -275 0
-202 -200 275 0
205 204 263 0
205 -204 -263 0
-205 204 -263 0
-205 -204 263 0
206 204 265 0
206 -204 -265 0
-206 204 -265 0
-206 -204 265 0
207 204 325 0
207 -204 -325 0
-207 204 -325 0
-207 -204 325 0
209 208 249 0
209 -208 -249 0
-209 208 -249 0
-209 -208 249 0
210 208 259 0
210 -208 -259 0
-210 208 -259 0
-210 -208 259 0
212 211 231 0
212 -211 -231 0
-212 211 -231 0
-212 -211 231 0
213 211 263 0
213 -211 -263 0
-213 211 -263 0
-213 -211 263 0
214 211 315 0
214 -211 -315 0
-214 211 -315 0
-214 -211 315 0
215 211 325 0
215 -211 -325 0
-215 211 -325 0
-215 -211 325 0
218 217 325 0
218 -217 -325 0
-218 217 -325 0
-218 -217 325 0
220 219 225 0
220 -219 -225 0
-220 219 -225 0
-220 -219 225 0
221 219 239 0
221 -219 -239 0
-221 219 -239 0
-221 -219 239 0
222 219 244 0
222 -219 -244 0
-222 219 -244 0
-222 -219 244 0
223 219 284 0
223 -219 -284 0
-223 219 -284 0
-223 -219 284 0
224 219 327 0
224 -219 -327 0
-224 219 -327 0
-224 -219 327 0
226 225 265 0
226 -225 -265 0
-226 225 -265 0
-226 -225 265 0
227 225 271 0
227 -225 -271 0
-227 225 -271 0
-227 -225 271 0
228 225 314 0
228 -225 -314 0
-228 225 -314 0
-228 -225 314 0
230 229 327 0
230 -229 -327 0
-230 229 -327 0
-230 -229 327 0
232 231 290 0
232 -231 -290 0
-232 231 -290 0
-232 -231 290 0
233 231 317 0
233 -231 -317 0
-233 231 -317 0
-233 -231 317 0
235 234 258 0
235 -234 -258 0
-235 234 -258 0
-235 -234 258 0
236 234 311 0
236 -234 -311 0
-236 234 -311 0
-236 -234 311 0
238 237 259 0
238 -237 -259 0
-238 237 -259 0
-238 -237 259 0
241 240 306 0
241 -240 -306 0
-241 240 -306 0
-241 -240 306 0
242 240 326 0
242 -240 -326 0
-242 240 -326 0
-242 -240 326 0
246 245 249 0
246 -245 -249 0
-246 245 -249 0
-246 -245 249 0
248 247 291 0
248 -247 -291 0
-248 247 -291 0
-248 -247 291 0
250 249 263 0
250 -249 -263 0
-250 249 -263 0
-250 -249 263 0
252 251 293 0
252 -251 -293 0
-252 251 -293 0
-252 -251 293 0
253 251 317 0
253 -251 -317 0
-253 251 -317 0
-253 -251 317 0
254 251 326 0
254 -251 -326 0
-254 251 -326 0
-254 -251 326 0
256 255 271 0
256 -255 -271 0
-256 255 -271 0
-256 -255 271 0
257 255 305 0
257 -255 -305 0
-257 255 -305 0
-257 -255 305 0
260 259 284 0
260 -259 -284 0
-260 259 -284 0
-260 -259 284 0
262 261 265 0
262 -261 -265 0
-262 261 -265 0
-262 -261 265 0
264 263 285 0
264 -263 -285 0
-264 263 -285 0
-264 -263 285 0
266 265 302 0
266 -265 -302 0
-266 265 -302 0
-266 -265 302 0
268 267 291 0
268 -267 -291 0
-268 267 -291 0
-268 -267 291 0
269 267 308 0
269 -267 -308 0
-269 267 -308 0
-269 -267 308 0
270 267 323 0
270 -267 -323 0
-270 267 -323 0
-270 -267 323 0
272 271 275 0
272 -271 -275 0
-272 271 -275 0
-272 -271 275 0
274 273 307 0
274 -273 -307 0
-274 273 -307 0
-274 -273 307 0
276 275 309 0
276 -275 -309 0
-276 275 -309 0
-276 -275 309 0
277 275 326 0
277 -275 -326 0
-277 275 -326 0
-277 -275 326 0
279 278 302 0
279 -278 -302 0
-279 278 -302 0
-279 -278 302 0
280 278 324 0
280 -278 -324 0
-280 278 -324 0
-280 -278 324 0
282 281 315 0
282 -281 -315 0
-282 281 -315 0
-282 -281 315 0
283 281 330 0
283 -281 -330 0
-283 281 -330 0
-283 -281 330 0
286 285 305 0
286 -285 -305 0
-286 285 -305 0
-286 -285 305 0
287 285 321 0
287 -285 -321 0
-287 285 -321 0
-287 -285 321 0
289 288 314 0
289 -288 -314 0
-289 288 -314 0
-289 -288 314 0
294 293 322 0
294 -293 -322 0
-294 293 -322 0
-294 -293 322 0
296 295 329 0
296 -295 -329 0
-296 295 -329 0
-296 -295 329 0
298 297 309 0
298 -297 -309 0
-298 297 -309 0
-298 -297 309 0
299 297 326 0
299 -297 -326 0
-299 297 -326 0
-299 -297 326 0
301 300 330 0
301 -300 -330 0
-301 300 -330 0
-301 -300 330 0
303 302 329 0
303 -302 -329 0
-303 302 -329 0
-303 -302 329 0
310 309 328 0
310 -309 -328 0
-310 309 -328 0
-310 -309 328 0
312 311 319 0
312 -311 -319 0
-312 311 -319 0
-312 -311 319 0
313 311 324 0
313 -311 -324 0
-313 311 -324 0
-313 -311 324 0
316 315 322 0
316 -315 -322 0
-316 315 -322 0
-316 -315 322 0
318 317 325 0
318 -317 -325 0
-318 317 -325 0
-318 -317 325 0
320 319 329 0
320 -319 -329 0
-320 319 -329 0
-320 -319 329 0
